c defined variables: 11 12 13 14 15 16 17 18 19 20 21 22 23 24 25 26 27 28 29 30 31 32 33 34 35 36 5 6 7 8 
p cnf 134 191
a 1 2 3 4 0
e 5 6 7 8 11 12 13 14 15 16 17 18 19 20 21 22 23 24 25 26 27 28 29 30 31 32 33 34 35 36 117 118 119 120 121 122 123 124 125 126 127 128 129 130 131 132 133 134 0
d 9 0
d 10 0
127 -5 0
-127 5 0
132 -6 0
-132 6 0
134 -7 0
-134 7 0
131 -8 0
-131 8 0
118 -11 0
-118 11 0
119 -12 0
-119 12 0
120 -13 0
-120 13 0
121 -14 0
-121 14 0
14 -15 0
-14 15 0
-15 -16 0
15 16 0
-117 -17 0
117 17 0
122 -18 0
-122 18 0
123 -19 0
-123 19 0
124 -20 0
-124 20 0
125 -21 0
-125 21 0
126 -22 0
-126 22 0
-117 -23 0
117 23 0
-117 -24 0
117 24 0
117 -25 0
-117 25 0
-117 -26 0
117 26 0
-117 -27 0
117 27 0
117 -28 0
-117 28 0
117 -29 0
-117 29 0
117 -30 0
-117 30 0
-117 -31 0
117 31 0
-117 -32 0
117 32 0
117 -33 0
-117 33 0
117 -34 0
-117 34 0
117 -35 0
-117 35 0
117 -36 0
-117 36 0
-11 3 0
-11 1 0
11 -3 -1 0
-12 4 0
-12 11 0
12 -4 -11 0
-13 2 0
-13 -12 0
13 -2 12 0
-14 4 0
-14 13 0
14 -4 -13 0
-15 7 0
-15 14 0
15 -7 -14 0
-16 -7 0
-16 -14 0
16 7 14 0
-17 -15 0
-17 -16 0
17 15 16 0
-18 2 0
-18 12 0
18 -2 -12 0
-19 3 0
-19 2 0
19 -3 -2 0
-20 4 0
-20 1 0
20 -4 -1 0
-21 -19 0
-21 -20 0
21 19 20 0
-22 -18 0
-22 -21 0
22 18 21 0
-23 6 0
-23 -22 0
23 -6 22 0
-24 -6 0
-24 22 0
24 6 -22 0
-25 -23 0
-25 -24 0
25 23 24 0
-26 -5 0
-26 11 0
26 5 -11 0
-27 -8 0
-27 18 0
27 8 -18 0
-28 -26 0
-28 -27 0
28 26 27 0
-29 25 0
-29 28 0
29 -25 -28 0
-30 -17 0
-30 29 0
30 17 -29 0
-31 5 0
-31 -11 0
31 -5 11 0
-32 8 0
-32 -18 0
32 -8 18 0
-33 -31 0
-33 -32 0
33 31 32 0
-34 30 0
-34 33 0
34 -30 -33 0
-35 9 0
-35 34 0
35 -9 -34 0
-36 10 0
-36 35 0
36 -10 -35 0
36 0
117 0
1 -118 0
3 -118 0
-1 -3 118 0
4 -119 0
11 -119 0
-4 -11 119 0
2 -120 0
-12 -120 0
-2 12 120 0
4 -121 0
13 -121 0
-4 -13 121 0
2 -122 0
12 -122 0
-2 -12 122 0
2 -123 0
3 -123 0
-2 -3 123 0
1 -124 0
4 -124 0
-1 -4 124 0
-19 -125 0
-20 -125 0
19 20 125 0
-18 -126 0
-21 -126 0
18 21 126 0
1 -127 0
3 -127 0
-1 -3 127 0
1 -128 0
4 -128 0
-1 -4 128 0
2 -129 0
3 -129 0
-2 -3 129 0
-128 -130 0
-129 -130 0
128 129 130 0
128 -131 0
129 -131 0
-128 -129 131 0
-130 -132 0
-131 -132 0
130 131 132 0
2 -133 0
4 -133 0
-2 -4 133 0
-127 -134 0
133 -134 0
127 -133 134 0
